(set-info :source |printed by MathSAT|)
(declare-fun |!{$(in_main#0)<i>}| () Int)
(declare-fun |!{$(in_main#0)<i>}.next| () Int)
(declare-fun |!{$(in_main#0)<l>}| () Int)
(declare-fun |!{$(in_main#0)<l>}.next| () Int)
(declare-fun |!{$(in_main#0)<a.1>}| () (Array Int Int))
(declare-fun |!{$(in_main#0)<a.1>}.next| () (Array Int Int))
(declare-fun |!{$(in_main#0)<b.2>}| () (Array Int Int))
(declare-fun |!{$(in_main#0)<b.2>}.next| () (Array Int Int))
(declare-fun |!{$(in_main#0)<main.return>}| () Int)
(declare-fun |!{$(in_main#0)<main.return>}.next| () Int)
(declare-fun |!{$(in_main#0)<SIZE>}| () Int)
(declare-fun |!{$(in_main#0)<SIZE>}.next| () Int)
(declare-fun |!{$(in_main#0)<$(in___VERIFIER_nondet_int#0)<h#<__VERIFIER_nondet_int.return>>>}| () Int)
(declare-fun |!{$(in_main#0)<$(in___VERIFIER_nondet_int#2)<h#<__VERIFIER_nondet_int.return>>>}| () Int)
(declare-fun |!{$(in_main#0)<$(in___VERIFIER_nondet_int#3)<h#<__VERIFIER_nondet_int.return>>>}| () Int)
(declare-fun !pc () Int)
(declare-fun !pc.next () Int)
(declare-fun |%{$(in_main#0)<l>}#1| () Int)
(declare-fun |%{$(in_main#0)<a.1>}#1| () (Array Int Int))
(declare-fun |%{$(in_main#0)<b.2>}#1| () (Array Int Int))
(declare-fun |%{$(in_main#0)<main.return>}#1| () Int)
(declare-fun |%{$(in_main#0)<a.1>}#2| () (Array Int Int))
(declare-fun |%{$(in_main#0)<b.2>}#2| () (Array Int Int))
(declare-fun |%{$(in_main#0)<$temp.1>}#3| () Int)
(define-fun .def_39 () Int (! !pc :next !pc.next))
(define-fun .def_42 () Bool (! (= .def_39 2) :init true))
(define-fun .def_210 () Bool (= .def_39 44))
(define-fun .def_188 () Bool (= !pc.next 59))
(define-fun .def_213 () Bool (and .def_188 .def_210))
(define-fun .def_10 () Int (! |!{$(in_main#0)<l>}| :next |!{$(in_main#0)<l>}.next|))
(define-fun .def_92 () Bool (= .def_10 |!{$(in_main#0)<l>}.next|))
(define-fun .def_60 () Bool (= |!{$(in_main#0)<i>}.next| 0))
(define-fun .def_204 () Bool (and .def_60 .def_92))
(define-fun .def_12 () (Array Int Int) (! |!{$(in_main#0)<a.1>}| :next |!{$(in_main#0)<a.1>}.next|))
(define-fun .def_94 () Bool (= .def_12 |!{$(in_main#0)<a.1>}.next|))
(define-fun .def_205 () Bool (and .def_94 .def_204))
(define-fun .def_14 () (Array Int Int) (! |!{$(in_main#0)<b.2>}| :next |!{$(in_main#0)<b.2>}.next|))
(define-fun .def_96 () Bool (= .def_14 |!{$(in_main#0)<b.2>}.next|))
(define-fun .def_206 () Bool (and .def_96 .def_205))
(define-fun .def_16 () Int (! |!{$(in_main#0)<main.return>}| :next |!{$(in_main#0)<main.return>}.next|))
(define-fun .def_98 () Bool (= .def_16 |!{$(in_main#0)<main.return>}.next|))
(define-fun .def_207 () Bool (and .def_98 .def_206))
(define-fun .def_18 () Int (! |!{$(in_main#0)<SIZE>}| :next |!{$(in_main#0)<SIZE>}.next|))
(define-fun .def_100 () Bool (= .def_18 |!{$(in_main#0)<SIZE>}.next|))
(define-fun .def_208 () Bool (and .def_100 .def_207))
(define-fun .def_8 () Int (! |!{$(in_main#0)<i>}| :next |!{$(in_main#0)<i>}.next|))
(define-fun .def_137 () Bool (<= .def_18 .def_8))
(define-fun .def_209 () Bool (and .def_137 .def_208))
(define-fun .def_214 () Bool (and .def_209 .def_213))
(define-fun .def_73 () Bool (= !pc.next 44))
(define-fun .def_211 () Bool (and .def_73 .def_210))
(define-fun .def_196 () (Array Int Int) (store .def_14 .def_8 .def_8))
(define-fun .def_199 () Bool (= |!{$(in_main#0)<b.2>}.next| .def_196))
(define-fun .def_195 () (Array Int Int) (store .def_12 .def_8 .def_8))
(define-fun .def_197 () Bool (= |!{$(in_main#0)<a.1>}.next| .def_195))
(define-fun .def_167 () Int (* (- 1) |!{$(in_main#0)<i>}.next|))
(define-fun .def_168 () Int (+ .def_8 .def_167))
(define-fun .def_169 () Bool (= .def_168 (- 1)))
(define-fun .def_170 () Bool (and .def_92 .def_169))
(define-fun .def_198 () Bool (and .def_170 .def_197))
(define-fun .def_200 () Bool (and .def_198 .def_199))
(define-fun .def_201 () Bool (and .def_98 .def_200))
(define-fun .def_202 () Bool (and .def_100 .def_201))
(define-fun .def_138 () Bool (not .def_137))
(define-fun .def_203 () Bool (and .def_138 .def_202))
(define-fun .def_212 () Bool (and .def_203 .def_211))
(define-fun .def_215 () Bool (or .def_212 .def_214))
(define-fun .def_187 () Bool (= .def_39 59))
(define-fun .def_126 () Bool (= !pc.next 98))
(define-fun .def_191 () Bool (and .def_126 .def_187))
(define-fun .def_179 () Bool (= |!{$(in_main#0)<l>}.next| 0))
(define-fun .def_90 () Bool (= .def_8 |!{$(in_main#0)<i>}.next|))
(define-fun .def_180 () Bool (and .def_90 .def_179))
(define-fun .def_181 () Bool (and .def_94 .def_180))
(define-fun .def_182 () Bool (and .def_96 .def_181))
(define-fun .def_183 () Bool (and .def_98 .def_182))
(define-fun .def_184 () Bool (and .def_100 .def_183))
(define-fun .def_185 () Bool (and .def_137 .def_184))
(define-fun .def_192 () Bool (and .def_185 .def_191))
(define-fun .def_189 () Bool (and .def_187 .def_188))
(define-fun .def_173 () Bool (= |!{$(in_main#0)<b.2>}.next| |%{$(in_main#0)<b.2>}#2|))
(define-fun .def_171 () Bool (= |!{$(in_main#0)<a.1>}.next| |%{$(in_main#0)<a.1>}#2|))
(define-fun .def_172 () Bool (and .def_170 .def_171))
(define-fun .def_174 () Bool (and .def_172 .def_173))
(define-fun .def_175 () Bool (and .def_98 .def_174))
(define-fun .def_176 () Bool (and .def_100 .def_175))
(define-fun .def_161 () Bool (= |!{$(in_main#0)<$(in___VERIFIER_nondet_int#3)<h#<__VERIFIER_nondet_int.return>>>}| |%{$(in_main#0)<$temp.1>}#3|))
(define-fun .def_142 () Int (* |!{$(in_main#0)<$(in___VERIFIER_nondet_int#3)<h#<__VERIFIER_nondet_int.return>>>}| |!{$(in_main#0)<$(in___VERIFIER_nondet_int#3)<h#<__VERIFIER_nondet_int.return>>>}|))
(define-fun .def_143 () (Array Int Int) (store .def_14 .def_8 .def_142))
(define-fun .def_155 () Bool (= .def_143 |%{$(in_main#0)<b.2>}#2|))
(define-fun .def_141 () (Array Int Int) (store .def_12 .def_8 |!{$(in_main#0)<$(in___VERIFIER_nondet_int#3)<h#<__VERIFIER_nondet_int.return>>>}|))
(define-fun .def_149 () Bool (= .def_141 |%{$(in_main#0)<a.1>}#2|))
(define-fun .def_139 () Bool (= |!{$(in_main#0)<$(in___VERIFIER_nondet_int#2)<h#<__VERIFIER_nondet_int.return>>>}| 0))
(define-fun .def_140 () Bool (not .def_139))
(define-fun .def_151 () Bool (and .def_140 .def_149))
(define-fun .def_157 () Bool (and .def_151 .def_155))
(define-fun .def_163 () Bool (and .def_157 .def_161))
(define-fun .def_160 () Bool (= |!{$(in_main#0)<$(in___VERIFIER_nondet_int#2)<h#<__VERIFIER_nondet_int.return>>>}| |%{$(in_main#0)<$temp.1>}#3|))
(define-fun .def_154 () Bool (= .def_14 |%{$(in_main#0)<b.2>}#2|))
(define-fun .def_148 () Bool (= .def_12 |%{$(in_main#0)<a.1>}#2|))
(define-fun .def_150 () Bool (and .def_139 .def_148))
(define-fun .def_156 () Bool (and .def_150 .def_154))
(define-fun .def_162 () Bool (and .def_156 .def_160))
(define-fun .def_164 () Bool (or .def_162 .def_163))
(define-fun .def_177 () Bool (and .def_164 .def_176))
(define-fun .def_178 () Bool (and .def_138 .def_177))
(define-fun .def_190 () Bool (and .def_178 .def_189))
(define-fun .def_193 () Bool (or .def_190 .def_192))
(define-fun .def_130 () Bool (= !pc.next 0))
(define-fun .def_121 () Bool (= .def_39 98))
(define-fun .def_131 () Bool (and .def_121 .def_130))
(define-fun .def_76 () Bool (<= .def_18 .def_10))
(define-fun .def_114 () Bool (and .def_76 .def_90))
(define-fun .def_115 () Bool (and .def_92 .def_114))
(define-fun .def_116 () Bool (and .def_94 .def_115))
(define-fun .def_117 () Bool (and .def_96 .def_116))
(define-fun .def_118 () Bool (and .def_98 .def_117))
(define-fun .def_119 () Bool (and .def_100 .def_118))
(define-fun .def_132 () Bool (and .def_119 .def_131))
(define-fun .def_127 () Bool (and .def_121 .def_126))
(define-fun .def_104 () Int (* (- 1) |!{$(in_main#0)<l>}.next|))
(define-fun .def_105 () Int (+ .def_10 .def_104))
(define-fun .def_106 () Bool (= .def_105 (- 1)))
(define-fun .def_107 () Bool (and .def_90 .def_106))
(define-fun .def_108 () Bool (and .def_94 .def_107))
(define-fun .def_109 () Bool (and .def_96 .def_108))
(define-fun .def_110 () Bool (and .def_98 .def_109))
(define-fun .def_111 () Bool (and .def_100 .def_110))
(define-fun .def_78 () Int (select .def_12 .def_10))
(define-fun .def_81 () Int (* .def_78 .def_78))
(define-fun .def_79 () Int (select .def_14 .def_10))
(define-fun .def_82 () Bool (= .def_79 .def_81))
(define-fun .def_80 () Bool (= .def_78 .def_79))
(define-fun .def_83 () Bool (or .def_80 .def_82))
(define-fun .def_84 () Int (ite .def_83 1 0))
(define-fun .def_85 () Bool (= .def_84 0))
(define-fun .def_86 () Bool (not .def_85))
(define-fun .def_112 () Bool (and .def_86 .def_111))
(define-fun .def_77 () Bool (not .def_76))
(define-fun .def_113 () Bool (and .def_77 .def_112))
(define-fun .def_128 () Bool (and .def_113 .def_127))
(define-fun .def_123 () Bool (= !pc.next 118))
(define-fun .def_124 () Bool (and .def_121 .def_123))
(define-fun .def_91 () Bool (and .def_85 .def_90))
(define-fun .def_93 () Bool (and .def_91 .def_92))
(define-fun .def_95 () Bool (and .def_93 .def_94))
(define-fun .def_97 () Bool (and .def_95 .def_96))
(define-fun .def_99 () Bool (and .def_97 .def_98))
(define-fun .def_101 () Bool (and .def_99 .def_100))
(define-fun .def_102 () Bool (and .def_77 .def_101))
(define-fun .def_125 () Bool (and .def_102 .def_124))
(define-fun .def_129 () Bool (or .def_125 .def_128))
(define-fun .def_133 () Bool (or .def_129 .def_132))
(define-fun .def_74 () Bool (and .def_42 .def_73))
(define-fun .def_69 () Bool (= |!{$(in_main#0)<SIZE>}.next| |!{$(in_main#0)<$(in___VERIFIER_nondet_int#0)<h#<__VERIFIER_nondet_int.return>>>}|))
(define-fun .def_67 () Bool (= |!{$(in_main#0)<main.return>}.next| |%{$(in_main#0)<main.return>}#1|))
(define-fun .def_65 () Bool (= |!{$(in_main#0)<b.2>}.next| |%{$(in_main#0)<b.2>}#1|))
(define-fun .def_63 () Bool (= |!{$(in_main#0)<a.1>}.next| |%{$(in_main#0)<a.1>}#1|))
(define-fun .def_61 () Bool (= |!{$(in_main#0)<l>}.next| |%{$(in_main#0)<l>}#1|))
(define-fun .def_62 () Bool (and .def_60 .def_61))
(define-fun .def_64 () Bool (and .def_62 .def_63))
(define-fun .def_66 () Bool (and .def_64 .def_65))
(define-fun .def_68 () Bool (and .def_66 .def_67))
(define-fun .def_70 () Bool (and .def_68 .def_69))
(define-fun .def_55 () Bool (<= |!{$(in_main#0)<$(in___VERIFIER_nondet_int#0)<h#<__VERIFIER_nondet_int.return>>>}| 0))
(define-fun .def_56 () Bool (not .def_55))
(define-fun .def_57 () Int (ite .def_56 1 0))
(define-fun .def_58 () Bool (= .def_57 0))
(define-fun .def_59 () Bool (not .def_58))
(define-fun .def_71 () Bool (and .def_59 .def_70))
(define-fun .def_75 () Bool (and .def_71 .def_74))
(define-fun .def_134 () Bool (or .def_75 .def_133))
(define-fun .def_194 () Bool (or .def_134 .def_193))
(define-fun .def_216 () Bool (! (or .def_194 .def_215) :trans true))
(define-fun .def_135 () Bool (= .def_39 118))
(define-fun .def_217 () Bool (! (not .def_135) :invar-property 0 :invar-property-name ||))
(assert true)
